c Result of efficient AIG-to-CNF conversion using package CNF
p cnf 746 2171
2 -576 743 -744 0
-2 576 0
-2 -743 0
-2 744 0
3 742 -745 0
-3 -742 0
-3 745 0
4 741 -745 0
-4 -741 0
-4 745 0
5 745 -6 0
5 -744 -745 -120 0
-5 744 -745 0
-5 745 6 0
-5 -745 120 0
6 571 572 7 -8 0
6 -571 -572 7 -8 0
-6 8 0
-6 -571 572 0
-6 -7 0
-6 571 -572 0
-7 -573 -574 0
-7 573 574 0
7 573 -574 0
7 -573 574 0
8 567 568 9 -10 0
8 -567 -568 9 -10 0
-8 10 0
-8 -567 568 0
-8 -9 0
-8 567 -568 0
-9 -569 -570 0
-9 569 570 0
9 569 -570 0
9 -569 570 0
10 563 564 11 -12 0
10 -563 -564 11 -12 0
-10 12 0
-10 -563 564 0
-10 -11 0
-10 563 -564 0
-11 -565 -566 0
-11 565 566 0
11 565 -566 0
11 -565 566 0
12 559 560 13 -14 0
12 -559 -560 13 -14 0
-12 14 0
-12 -559 560 0
-12 -13 0
-12 559 -560 0
-13 -561 -562 0
-13 561 562 0
13 561 -562 0
13 -561 562 0
14 554 555 15 -16 0
14 -554 -555 15 -16 0
-14 16 0
-14 -554 555 0
-14 -15 0
-14 554 -555 0
-15 -557 -558 0
-15 557 558 0
15 557 -558 0
15 -557 558 0
16 549 550 17 -18 0
16 -549 -550 17 -18 0
-16 18 0
-16 -549 550 0
-16 -17 0
-16 549 -550 0
-17 -551 -552 0
-17 551 552 0
17 551 -552 0
17 -551 552 0
18 545 546 19 -20 0
18 -545 -546 19 -20 0
-18 20 0
-18 -545 546 0
-18 -19 0
-18 545 -546 0
-19 -547 -548 0
-19 547 548 0
19 547 -548 0
19 -547 548 0
20 541 542 21 -22 0
20 -541 -542 21 -22 0
-20 22 0
-20 -541 542 0
-20 -21 0
-20 541 -542 0
-21 -543 -544 0
-21 543 544 0
21 543 -544 0
21 -543 544 0
22 537 538 23 -24 0
22 -537 -538 23 -24 0
-22 24 0
-22 -537 538 0
-22 -23 0
-22 537 -538 0
-23 -539 -540 0
-23 539 540 0
23 539 -540 0
23 -539 540 0
24 532 533 25 -26 0
24 -532 -533 25 -26 0
-24 26 0
-24 -532 533 0
-24 -25 0
-24 532 -533 0
-25 -535 -536 0
-25 535 536 0
25 535 -536 0
25 -535 536 0
26 527 528 27 -28 0
26 -527 -528 27 -28 0
-26 28 0
-26 -527 528 0
-26 -27 0
-26 527 -528 0
-27 -529 -530 0
-27 529 530 0
27 529 -530 0
27 -529 530 0
28 523 524 29 -30 0
28 -523 -524 29 -30 0
-28 30 0
-28 -523 524 0
-28 -29 0
-28 523 -524 0
-29 -525 -526 0
-29 525 526 0
29 525 -526 0
29 -525 526 0
30 519 520 31 -32 0
30 -519 -520 31 -32 0
-30 32 0
-30 -519 520 0
-30 -31 0
-30 519 -520 0
-31 -521 -522 0
-31 521 522 0
31 521 -522 0
31 -521 522 0
32 515 516 33 -34 0
32 -515 -516 33 -34 0
-32 34 0
-32 -515 516 0
-32 -33 0
-32 515 -516 0
-33 -517 -518 0
-33 517 518 0
33 517 -518 0
33 -517 518 0
34 511 512 35 -36 0
34 -511 -512 35 -36 0
-34 36 0
-34 -511 512 0
-34 -35 0
-34 511 -512 0
-35 -513 -514 0
-35 513 514 0
35 513 -514 0
35 -513 514 0
36 491 508 37 -38 0
36 -491 -508 37 -38 0
-36 38 0
-36 -491 508 0
-36 -37 0
-36 491 -508 0
-37 -509 -510 0
-37 509 510 0
37 509 -510 0
37 -509 510 0
38 481 482 39 -40 0
38 -481 -482 39 -40 0
-38 40 0
-38 -481 482 0
-38 -39 0
-38 481 -482 0
-39 -483 -484 0
-39 483 484 0
39 483 -484 0
39 -483 484 0
40 474 475 41 -42 0
40 -474 -475 41 -42 0
-40 42 0
-40 -474 475 0
-40 -41 0
-40 474 -475 0
-41 -476 -477 0
-41 476 477 0
41 476 -477 0
41 -476 477 0
42 468 469 43 -44 0
42 -468 -469 43 -44 0
-42 44 0
-42 -468 469 0
-42 -43 0
-42 468 -469 0
-43 -470 -471 0
-43 470 471 0
43 470 -471 0
43 -470 471 0
44 464 465 45 -46 0
44 -464 -465 45 -46 0
-44 46 0
-44 -464 465 0
-44 -45 0
-44 464 -465 0
-45 -466 -467 0
-45 466 467 0
45 466 -467 0
45 -466 467 0
46 460 461 47 -48 0
46 -460 -461 47 -48 0
-46 48 0
-46 -460 461 0
-46 -47 0
-46 460 -461 0
-47 -462 -463 0
-47 462 463 0
47 462 -463 0
47 -462 463 0
48 456 457 49 -50 0
48 -456 -457 49 -50 0
-48 50 0
-48 -456 457 0
-48 -49 0
-48 456 -457 0
-49 -458 -459 0
-49 458 459 0
49 458 -459 0
49 -458 459 0
50 452 453 51 -52 0
50 -452 -453 51 -52 0
-50 52 0
-50 -452 453 0
-50 -51 0
-50 452 -453 0
-51 -454 -455 0
-51 454 455 0
51 454 -455 0
51 -454 455 0
52 448 449 53 -54 0
52 -448 -449 53 -54 0
-52 54 0
-52 -448 449 0
-52 -53 0
-52 448 -449 0
-53 -450 -451 0
-53 450 451 0
53 450 -451 0
53 -450 451 0
54 436 445 55 -56 0
54 -436 -445 55 -56 0
-54 56 0
-54 -436 445 0
-54 -55 0
-54 436 -445 0
-55 -446 -447 0
-55 446 447 0
55 446 -447 0
55 -446 447 0
56 430 431 57 -58 0
56 -430 -431 57 -58 0
-56 58 0
-56 -430 431 0
-56 -57 0
-56 430 -431 0
-57 -432 -433 0
-57 432 433 0
57 432 -433 0
57 -432 433 0
58 423 424 59 -60 0
58 -423 -424 59 -60 0
-58 60 0
-58 -423 424 0
-58 -59 0
-58 423 -424 0
-59 -425 -426 0
-59 425 426 0
59 425 -426 0
59 -425 426 0
60 418 419 61 -62 0
60 -418 -419 61 -62 0
-60 62 0
-60 -418 419 0
-60 -61 0
-60 418 -419 0
-61 -420 -421 0
-61 420 421 0
61 420 -421 0
61 -420 421 0
62 413 414 63 -64 0
62 -413 -414 63 -64 0
-62 64 0
-62 -413 414 0
-62 -63 0
-62 413 -414 0
-63 -415 -416 0
-63 415 416 0
63 415 -416 0
63 -415 416 0
64 -412 -417 -422 -65 0
-64 65 0
-64 412 0
-64 422 0
-64 417 0
65 422 428 429 -66 0
65 -422 -428 -429 -66 0
-65 -428 429 0
-65 422 -429 0
-65 66 0
-65 -422 428 0
66 427 429 439 -67 0
66 -427 -429 -439 -67 0
-66 -429 439 0
-66 427 -439 0
-66 67 0
-66 -427 429 0
67 439 441 442 -68 0
67 -439 -441 -442 -68 0
-67 -441 442 0
-67 439 -442 0
-67 68 0
-67 -439 441 0
68 435 442 472 -69 0
68 -435 -442 -472 -69 0
-68 -442 472 0
-68 435 -472 0
-68 69 0
-68 -435 442 0
69 472 494 495 -70 0
69 -472 -494 -495 -70 0
-69 -494 495 0
-69 472 -495 0
-69 70 0
-69 -472 494 0
70 495 496 497 -71 0
70 -495 -496 -497 -71 0
-70 -496 497 0
-70 495 -497 0
-70 71 0
-70 -495 496 0
71 497 498 499 -72 0
71 -497 -498 -499 -72 0
-71 -498 499 0
-71 497 -499 0
-71 72 0
-71 -497 498 0
72 499 500 501 -73 0
72 -499 -500 -501 -73 0
-72 -500 501 0
-72 499 -501 0
-72 73 0
-72 -499 500 0
73 501 502 503 -74 0
73 -501 -502 -503 -74 0
-73 -502 503 0
-73 501 -503 0
-73 74 0
-73 -501 502 0
74 503 504 505 -75 0
74 -503 -504 -505 -75 0
-74 -504 505 0
-74 503 -505 0
-74 75 0
-74 -503 504 0
75 505 506 507 -76 0
75 -505 -506 -507 -76 0
-75 -506 507 0
-75 505 -507 0
-75 76 0
-75 -505 506 0
76 489 493 507 -77 0
76 -489 -493 -507 -77 0
-76 -493 507 0
-76 489 -507 0
-76 77 0
-76 -489 493 0
77 414 485 489 -78 0
77 -414 -485 -489 -78 0
-77 -485 489 0
-77 414 -489 0
-77 78 0
-77 -414 485 0
78 414 419 424 -79 0
78 -414 -419 -424 -79 0
-78 -419 424 0
-78 414 -424 0
-78 79 0
-78 -414 419 0
79 424 431 447 -80 0
79 -424 -431 -447 -80 0
-79 -431 447 0
-79 424 -447 0
-79 80 0
-79 -424 431 0
80 447 451 455 -81 0
80 -447 -451 -455 -81 0
-80 -451 455 0
-80 447 -455 0
-80 81 0
-80 -447 451 0
81 455 459 463 -82 0
81 -455 -459 -463 -82 0
-81 -459 463 0
-81 455 -463 0
-81 82 0
-81 -455 459 0
82 463 467 469 -83 0
82 -463 -467 -469 -83 0
-82 -467 469 0
-82 463 -469 0
-82 83 0
-82 -463 467 0
83 469 475 482 -84 0
83 -469 -475 -482 -84 0
-83 -475 482 0
-83 469 -482 0
-83 84 0
-83 -469 475 0
84 482 508 512 -85 0
84 -482 -508 -512 -85 0
-84 -508 512 0
-84 482 -512 0
-84 85 0
-84 -482 508 0
85 512 518 522 -86 0
85 -512 -518 -522 -86 0
-85 -518 522 0
-85 512 -522 0
-85 86 0
-85 -512 518 0
86 522 526 530 -87 0
86 -522 -526 -530 -87 0
-86 -526 530 0
-86 522 -530 0
-86 87 0
-86 -522 526 0
87 530 533 538 -88 0
87 -530 -533 -538 -88 0
-87 -533 538 0
-87 530 -538 0
-87 88 0
-87 -530 533 0
88 538 544 548 -89 0
88 -538 -544 -548 -89 0
-88 -544 548 0
-88 538 -548 0
-88 89 0
-88 -538 544 0
89 548 552 558 -90 0
89 -548 -552 -558 -90 0
-89 -552 558 0
-89 548 -558 0
-89 90 0
-89 -548 552 0
90 558 560 564 -91 0
90 -558 -560 -564 -91 0
-90 -560 564 0
-90 558 -564 0
-90 91 0
-90 -558 560 0
91 564 568 572 -92 0
91 -564 -568 -572 -92 0
-91 -568 572 0
-91 564 -572 0
-91 92 0
-91 -564 568 0
92 572 -93 -94 -95 0
92 -572 93 94 -95 0
-92 93 -94 0
-92 572 94 0
-92 95 0
-92 -572 -93 0
-93 -531 -538 0
-93 531 538 0
93 531 -538 0
93 -531 538 0
-94 -534 -540 0
-94 534 540 0
94 534 -540 0
94 -534 540 0
95 94 96 97 -98 0
-95 98 0
-95 -94 0
-95 -97 0
-95 -96 0
-96 -553 -566 0
-96 553 566 0
96 553 -566 0
96 -553 566 0
-97 -556 -564 0
-97 556 564 0
97 556 -564 0
97 -556 564 0
98 411 -412 437 99 0
-98 412 0
-98 -437 0
-98 -411 0
-98 -99 0
-99 437 438 440 100 0
-99 -437 -438 -440 100 0
99 -438 440 0
99 437 -440 0
99 -100 0
99 -437 438 0
-100 440 443 444 101 0
-100 -440 -443 -444 101 0
100 -443 444 0
100 440 -444 0
100 -101 0
100 -440 443 0
-101 434 444 473 102 0
-101 -434 -444 -473 102 0
101 -444 473 0
101 434 -473 0
101 -102 0
101 -434 444 0
-102 473 478 479 103 0
-102 -473 -478 -479 103 0
102 -478 479 0
102 473 -479 0
102 -103 0
102 -473 478 0
-103 479 480 492 104 0
-103 -479 -480 -492 104 0
103 -480 492 0
103 479 -492 0
103 -104 0
103 -479 480 0
-104 486 487 492 105 0
-104 -486 -487 -492 105 0
104 -487 492 0
104 486 -492 0
104 -105 0
104 -486 487 0
-105 487 488 490 106 0
-105 -487 -488 -490 106 0
105 -488 490 0
105 487 -490 0
105 -106 0
105 -487 488 0
-106 416 421 490 107 0
-106 -416 -421 -490 107 0
106 -421 490 0
106 416 -490 0
106 -107 0
106 -416 421 0
-107 421 426 433 108 0
-107 -421 -426 -433 108 0
107 -426 433 0
107 421 -433 0
107 -108 0
107 -421 426 0
-108 433 445 449 109 0
-108 -433 -445 -449 109 0
108 -445 449 0
108 433 -449 0
108 -109 0
108 -433 445 0
-109 449 453 457 110 0
-109 -449 -453 -457 110 0
109 -453 457 0
109 449 -457 0
109 -110 0
109 -449 453 0
-110 457 461 465 111 0
-110 -457 -461 -465 111 0
110 -461 465 0
110 457 -465 0
110 -111 0
110 -457 461 0
-111 465 471 477 112 0
-111 -465 -471 -477 112 0
111 -471 477 0
111 465 -477 0
111 -112 0
111 -465 471 0
-112 477 484 510 113 0
-112 -477 -484 -510 113 0
112 -484 510 0
112 477 -510 0
112 -113 0
112 -477 484 0
-113 510 514 516 114 0
-113 -510 -514 -516 114 0
113 -514 516 0
113 510 -516 0
113 -114 0
113 -510 514 0
-114 516 520 524 115 0
-114 -516 -520 -524 115 0
114 -520 524 0
114 516 -524 0
114 -115 0
114 -516 520 0
-115 524 528 536 116 0
-115 -524 -528 -536 116 0
115 -528 536 0
115 524 -536 0
115 -116 0
115 -524 528 0
-116 536 540 542 117 0
-116 -536 -540 -542 117 0
116 -540 542 0
116 536 -542 0
116 -117 0
116 -536 540 0
-117 542 546 550 118 0
-117 -542 -546 -550 118 0
117 -546 550 0
117 542 -550 0
117 -118 0
117 -542 546 0
-118 550 555 562 119 0
-118 -550 -555 -562 119 0
118 -555 562 0
118 550 -562 0
118 -119 0
118 -550 555 0
-119 562 566 570 574 0
119 -574 0
119 -570 0
119 -562 0
119 -566 0
120 737 -739 -121 409 0
120 -737 739 -121 409 0
-120 -409 0
-120 737 739 0
-120 121 0
-120 -737 -739 0
121 703 -705 -122 -123 0
121 -703 705 -122 -123 0
-121 123 0
-121 703 705 0
-121 122 0
-121 -703 -705 0
122 698 -701 0
122 -698 701 0
-122 -698 -701 0
-122 698 701 0
123 681 -683 -124 -125 0
123 -681 683 -124 -125 0
-123 125 0
-123 681 683 0
-123 124 0
-123 -681 -683 0
124 685 -687 0
124 -685 687 0
-124 -685 -687 0
-124 685 687 0
125 677 -679 -126 -127 0
125 -677 679 -126 -127 0
-125 127 0
-125 677 679 0
-125 126 0
-125 -677 -679 0
126 711 -713 0
126 -711 713 0
-126 -711 -713 0
-126 711 713 0
127 707 -709 -128 -129 0
127 -707 709 -128 -129 0
-127 129 0
-127 707 709 0
-127 128 0
-127 -707 -709 0
128 689 -691 0
128 -689 691 0
-128 -689 -691 0
-128 689 691 0
129 715 -717 -130 -131 0
129 -715 717 -130 -131 0
-129 131 0
-129 715 717 0
-129 130 0
-129 -715 -717 0
130 693 -695 0
130 -693 695 0
-130 -693 -695 0
-130 693 695 0
131 729 -731 -132 -133 0
131 -729 731 -132 -133 0
-131 133 0
-131 729 731 0
-131 132 0
-131 -729 -731 0
132 720 -723 0
132 -720 723 0
-132 -720 -723 0
-132 720 723 0
133 733 -735 -134 -135 0
133 -733 735 -134 -135 0
-133 135 0
-133 733 735 0
-133 134 0
-133 -733 -735 0
134 725 -727 0
134 -725 727 0
-134 -725 -727 0
-134 725 727 0
135 657 -675 -136 -137 0
135 -657 675 -136 -137 0
-135 137 0
-135 657 675 0
-135 136 0
-135 -657 -675 0
136 647 -649 0
136 -647 649 0
-136 -647 -649 0
-136 647 649 0
137 630 -632 -138 -139 0
137 -630 632 -138 -139 0
-137 139 0
-137 630 632 0
-137 138 0
-137 -630 -632 0
138 634 -636 0
138 -634 636 0
-138 -634 -636 0
-138 634 636 0
139 622 -624 -140 -141 0
139 -622 624 -140 -141 0
-139 141 0
-139 622 624 0
-139 140 0
-139 -622 -624 0
140 626 -628 0
140 -626 628 0
-140 -626 -628 0
-140 626 628 0
141 614 -616 -142 -143 0
141 -614 616 -142 -143 0
-141 143 0
-141 614 616 0
-141 142 0
-141 -614 -616 0
142 618 -620 0
142 -618 620 0
-142 -618 -620 0
-142 618 620 0
143 579 -581 -144 -145 0
143 -579 581 -144 -145 0
-143 145 0
-143 579 581 0
-143 144 0
-143 -579 -581 0
144 602 -612 0
144 -602 612 0
-144 -602 -612 0
-144 602 612 0
145 584 -586 -146 -147 0
145 -584 586 -146 -147 0
-145 147 0
-145 584 586 0
-145 146 0
-145 -584 -586 0
146 589 -591 0
146 -589 591 0
-146 -589 -591 0
-146 589 591 0
147 596 -598 -148 -149 0
147 -596 598 -148 -149 0
-147 149 0
-147 596 598 0
-147 148 0
-147 -596 -598 0
148 640 -642 0
148 -640 642 0
-148 -640 -642 0
-148 640 642 0
149 700 705 150 -151 0
149 -700 -705 150 -151 0
-149 151 0
-149 -700 705 0
-149 -150 0
-149 700 -705 0
-150 -697 -703 0
-150 697 703 0
150 697 -703 0
150 -697 703 0
151 722 729 152 -153 0
151 -722 -729 152 -153 0
-151 153 0
-151 -722 729 0
-151 -152 0
-151 722 -729 0
-152 -719 -731 0
-152 719 731 0
152 719 -731 0
152 -719 731 0
153 413 -154 -156 -408 0
153 -413 154 -156 -408 0
-153 408 0
-153 413 154 0
-153 156 0
-153 -413 -154 0
154 579 -155 0
-154 -579 0
-154 155 0
155 -411 412 0
-155 411 0
-155 -412 0
156 415 157 -158 161 0
156 -415 -157 -158 161 0
-156 -161 0
-156 -415 157 0
-156 158 0
-156 415 -157 0
157 -581 -155 0
-157 581 0
-157 155 0
158 418 -159 0
158 -418 159 0
-158 -418 -159 0
-158 418 159 0
159 584 -160 0
-159 -584 0
-159 160 0
160 -412 -417 0
-160 412 0
-160 417 0
-161 423 162 164 167 0
-161 -423 162 -164 167 0
161 -167 0
161 -423 164 0
161 -162 0
161 423 -164 0
-162 -420 -163 0
-162 420 163 0
162 420 -163 0
162 -420 163 0
163 -586 -160 0
-163 586 0
-163 160 0
-164 165 -166 0
-164 422 589 0
-164 422 -166 0
-164 589 165 0
164 -422 -165 0
164 -589 166 0
165 -584 -160 0
-165 584 0
-165 160 0
166 586 -160 0
-166 -586 0
-166 160 0
-167 430 168 170 174 0
-167 -430 168 -170 174 0
167 -174 0
167 -430 170 0
167 -168 0
167 430 -170 0
-168 -425 -169 0
-168 425 169 0
168 425 -169 0
168 -425 169 0
169 -591 166 0
169 422 -165 0
169 422 -591 0
169 -165 166 0
-169 -422 -166 0
-169 591 165 0
-170 171 -173 0
-170 596 171 0
170 -171 0
170 -596 173 0
171 -428 429 -172 0
171 -429 -164 -172 0
-171 172 0
-171 -429 164 0
-171 428 429 0
172 -427 -579 -155 0
-172 427 0
-172 579 0
-172 155 0
173 -427 581 -155 0
-173 427 0
-173 -581 0
-173 155 0
-174 432 175 177 183 0
-174 -432 -175 177 183 0
174 -183 0
174 -432 175 0
174 -177 0
174 432 -175 0
175 -598 176 0
175 -172 176 0
-175 -176 0
-175 598 172 0
176 -428 429 -173 0
176 -429 169 -173 0
-176 173 0
-176 -429 -169 0
-176 428 429 0
-177 436 178 0
-177 -436 -178 0
177 -436 178 0
177 436 -178 0
-178 -179 180 0
-178 602 180 0
178 -180 0
178 -602 179 0
179 -435 -155 0
179 -427 -434 -155 0
-179 155 0
-179 427 435 0
-179 434 435 0
180 443 444 -179 -181 0
-180 -443 0
-180 181 0
-180 179 0
-180 -444 0
181 440 441 442 -182 0
-181 182 0
-181 -442 0
-181 -440 0
-181 -441 0
182 -437 438 -439 0
-182 437 0
-182 -438 0
-182 439 0
-183 446 184 185 190 0
-183 -446 -184 185 190 0
183 -190 0
183 -446 184 0
183 -185 0
183 446 -184 0
184 -612 180 0
184 -179 180 0
-184 -180 0
-184 612 179 0
-185 448 186 0
-185 -448 -186 0
185 -448 186 0
185 448 -186 0
-186 -179 187 0
-186 614 187 0
186 -187 0
186 -614 179 0
187 443 444 -179 -188 0
-187 -443 0
-187 188 0
-187 179 0
-187 -444 0
188 440 441 442 -189 0
-188 189 0
-188 -442 0
-188 -440 0
-188 -441 0
189 437 438 -439 0
-189 439 0
-189 -438 0
-189 -437 0
-190 450 191 192 197 0
-190 -450 -191 192 197 0
190 -197 0
190 -450 191 0
190 -192 0
190 450 -191 0
191 -616 187 0
191 -179 187 0
-191 -187 0
-191 616 179 0
-192 452 193 0
-192 -452 -193 0
192 -452 193 0
192 452 -193 0
-193 -179 194 0
-193 618 194 0
193 -194 0
193 -618 179 0
194 443 444 -179 -195 0
-194 -443 0
-194 195 0
-194 179 0
-194 -444 0
195 440 441 442 -196 0
-195 196 0
-195 -442 0
-195 -440 0
-195 -441 0
196 -437 -438 439 0
-196 437 0
-196 438 0
-196 -439 0
-197 456 198 200 204 0
-197 -456 198 -200 204 0
197 -204 0
197 -456 200 0
197 -198 0
197 456 -200 0
-198 -454 -199 0
-198 454 199 0
198 454 -199 0
198 -454 199 0
199 -620 194 0
199 -179 194 0
-199 -194 0
-199 620 179 0
-200 -179 201 0
-200 622 201 0
200 -201 0
200 -622 179 0
201 -438 -179 -202 0
-201 438 0
-201 179 0
-201 202 0
202 -437 -203 0
-202 437 0
-202 203 0
203 -439 -441 442 443 0
-203 441 0
-203 -443 0
-203 439 0
-203 -442 0
-204 458 205 206 210 0
-204 -458 -205 206 210 0
204 -210 0
204 -458 205 0
204 -206 0
204 458 -205 0
205 -624 201 0
205 -179 201 0
-205 -201 0
-205 624 179 0
-206 460 207 0
-206 -460 -207 0
206 -460 207 0
206 460 -207 0
-207 -179 208 0
-207 626 208 0
207 -208 0
207 -626 179 0
208 -438 -179 -209 0
-208 438 0
-208 179 0
-208 209 0
209 437 -203 0
-209 -437 0
-209 203 0
-210 462 211 212 215 0
-210 -462 -211 212 215 0
210 -215 0
210 -462 211 0
210 -212 0
210 462 -211 0
211 -628 208 0
211 -179 208 0
-211 -208 0
-211 628 179 0
-212 464 213 0
-212 -464 -213 0
212 -464 213 0
212 464 -213 0
-213 -179 214 0
-213 630 214 0
213 -214 0
213 -630 179 0
214 438 -179 -202 0
-214 202 0
-214 179 0
-214 -438 0
-215 466 216 217 220 0
-215 -466 -216 217 220 0
215 -220 0
215 -466 216 0
215 -217 0
215 466 -216 0
216 -632 214 0
216 -179 214 0
-216 -214 0
-216 632 179 0
-217 468 218 0
-217 -468 -218 0
217 -468 218 0
217 468 -218 0
-218 -179 219 0
-218 634 219 0
218 -219 0
218 -634 179 0
219 438 -179 -209 0
-219 209 0
-219 179 0
-219 -438 0
-220 470 221 222 225 0
-220 -470 -221 222 225 0
220 -225 0
220 -470 221 0
220 -222 0
220 470 -221 0
221 -636 219 0
221 -179 219 0
-221 -219 0
-221 636 179 0
-222 474 223 0
-222 -474 -223 0
222 -474 223 0
222 474 -223 0
-223 640 172 0
-223 -173 224 0
-223 172 -173 0
-223 640 224 0
223 -640 173 0
223 -172 -224 0
224 -472 473 0
-224 472 0
-224 -473 0
-225 476 226 227 230 0
-225 -476 -226 227 230 0
225 -230 0
225 -476 226 0
225 -227 0
225 476 -226 0
226 -172 173 0
226 -642 224 0
226 -642 173 0
226 -172 224 0
-226 642 172 0
-226 -173 -224 0
-227 481 228 0
-227 -481 -228 0
227 -481 228 0
227 481 -228 0
-228 647 172 0
-228 -173 229 0
-228 647 229 0
-228 172 -173 0
228 -647 173 0
228 -172 -229 0
-229 472 478 479 480 0
229 -480 0
229 -479 0
229 -472 0
229 -478 0
-230 483 231 232 276 0
-230 -483 -231 232 276 0
230 -276 0
230 -483 231 0
230 -232 0
230 483 -231 0
231 -649 229 0
231 -172 173 0
231 -649 173 0
231 -172 229 0
-231 649 172 0
-231 -173 -229 0
-232 491 233 0
-232 -491 -233 0
232 -491 233 0
232 491 -233 0
-233 657 237 0
-233 -234 237 0
233 -237 0
233 -657 234 0
-234 490 235 0
-234 489 490 -236 0
234 -490 0
234 -489 -235 0
234 -235 236 0
235 -412 -485 0
-235 412 0
-235 485 0
236 487 488 -231 0
236 -486 487 488 0
-236 -488 0
-236 -487 0
-236 486 231 0
237 -238 240 0
237 -238 -251 -262 0
-237 238 0
-237 -240 251 0
-237 -240 262 0
-238 490 235 0
-238 489 490 239 0
238 -490 0
238 -489 -235 0
238 -235 -239 0
-239 487 488 228 0
-239 -486 487 488 0
239 -488 0
239 -487 0
239 486 -228 0
240 221 -235 241 0
240 -235 241 243 0
-240 235 0
-240 -241 0
-240 -221 -243 0
241 489 -492 0
241 489 -242 0
241 489 -493 0
-241 -489 0
-241 492 493 242 0
-242 486 487 226 0
242 -486 0
242 -226 0
242 -487 0
243 -216 -244 0
-243 216 0
-243 244 0
244 -211 -245 0
-244 211 0
-244 245 0
245 -205 246 0
-245 205 0
-245 -246 0
-246 247 250 0
246 -247 0
246 -250 0
-247 248 249 0
247 -248 0
247 -249 0
248 -489 184 0
-248 489 0
-248 -184 0
249 -489 191 0
-249 489 0
-249 -191 0
250 -489 199 0
-250 489 0
-250 -199 0
251 -218 -235 -252 0
251 -235 -252 -254 0
-251 235 0
-251 252 0
-251 218 254 0
-252 489 -492 0
-252 489 253 0
-252 489 -493 0
252 -489 0
252 492 493 -253 0
253 486 487 -223 0
-253 -486 0
-253 223 0
-253 -487 0
-254 213 255 0
254 -213 0
254 -255 0
-255 207 256 0
255 -207 0
255 -256 0
-256 200 257 0
256 -200 0
256 -257 0
-257 258 261 0
257 -258 0
257 -261 0
-258 259 260 0
258 -259 0
258 -260 0
259 -489 -178 0
-259 489 0
-259 178 0
260 -489 -186 0
-260 489 0
-260 186 0
261 -489 -193 0
-261 489 0
-261 193 0
-262 218 263 0
-262 243 263 0
-262 263 275 0
262 -263 0
262 -218 -243 -275 0
-263 213 264 0
-263 244 264 0
-263 264 274 0
263 -264 0
263 -213 -244 -274 0
-264 207 265 0
-264 245 265 0
-264 265 273 0
264 -265 0
264 -207 -245 -273 0
-265 200 266 0
-265 -246 266 0
-265 266 272 0
265 -266 0
265 -200 246 -272 0
-266 261 267 0
-266 267 271 0
-266 -247 267 0
266 -267 0
266 247 -261 -271 0
-267 260 269 0
-267 268 269 0
-267 184 269 0
267 -269 0
267 -184 -260 -268 0
-268 494 495 0
-268 170 175 0
-268 495 170 0
-268 494 175 0
268 -494 -170 0
268 -495 -175 0
269 -259 -270 0
269 -497 -175 -259 0
-269 259 0
-269 175 270 0
-269 497 270 0
270 -496 -170 0
-270 496 0
-270 170 0
-271 498 499 0
-271 170 175 0
-271 499 170 0
-271 498 175 0
271 -498 -170 0
271 -499 -175 0
-272 500 501 0
-272 170 175 0
-272 501 170 0
-272 500 175 0
272 -500 -170 0
272 -501 -175 0
-273 502 503 0
-273 170 175 0
-273 503 170 0
-273 502 175 0
273 -502 -170 0
273 -503 -175 0
-274 504 505 0
-274 170 175 0
-274 505 170 0
-274 504 175 0
274 -504 -170 0
274 -505 -175 0
-275 506 507 0
-275 170 175 0
-275 507 170 0
-275 506 175 0
275 -506 -170 0
275 -507 -175 0
-276 511 277 294 295 0
-276 -511 277 -294 295 0
276 -295 0
276 -511 294 0
276 -277 0
276 511 -294 0
-277 -509 -278 0
-277 509 278 0
277 509 -278 0
277 -509 278 0
278 -675 279 0
278 -238 279 0
-278 -279 0
-278 675 238 0
279 -234 251 0
279 -234 -240 -280 0
-279 234 0
-279 240 -251 0
-279 -251 280 0
-280 -221 281 0
-280 -254 281 0
-280 281 293 0
280 -281 0
280 221 254 -293 0
-281 -216 282 0
-281 -255 282 0
-281 282 292 0
281 -282 0
281 216 255 -292 0
-282 -211 283 0
-282 -256 283 0
-282 283 291 0
282 -283 0
282 211 256 -291 0
-283 -205 284 0
-283 -257 284 0
-283 284 290 0
283 -284 0
283 205 257 -290 0
-284 -258 285 0
-284 285 289 0
-284 250 285 0
284 -285 0
284 -250 258 -289 0
-285 249 287 0
-285 286 287 0
-285 -178 287 0
285 -287 0
285 178 -249 -286 0
-286 -170 -175 0
-286 494 495 0
-286 495 -175 0
-286 494 -170 0
286 -495 170 0
286 -494 175 0
287 -248 -288 0
287 -497 170 -248 0
-287 248 0
-287 -170 288 0
-287 497 288 0
288 -496 175 0
-288 496 0
-288 -175 0
-289 -170 -175 0
-289 498 499 0
-289 499 -175 0
-289 498 -170 0
289 -499 170 0
289 -498 175 0
-290 -170 -175 0
-290 500 501 0
-290 501 -175 0
-290 500 -170 0
290 -501 170 0
290 -500 175 0
-291 -170 -175 0
-291 502 503 0
-291 503 -175 0
-291 502 -170 0
291 -503 170 0
291 -502 175 0
-292 -170 -175 0
-292 504 505 0
-292 505 -175 0
-292 504 -170 0
292 -505 170 0
292 -504 175 0
-293 -170 -175 0
-293 506 507 0
-293 507 -175 0
-293 506 -170 0
293 -507 170 0
293 -506 175 0
-294 677 179 0
-294 -438 -179 0
-294 -437 -179 0
294 -677 179 0
294 437 438 -179 0
-295 513 296 297 302 0
-295 -513 -296 297 302 0
295 -302 0
295 -513 296 0
295 -297 0
295 513 -296 0
296 -679 179 0
296 -438 -179 0
296 -437 -179 0
-296 679 179 0
-296 437 438 -179 0
-297 515 298 0
-297 -515 -298 0
297 -515 298 0
297 515 -298 0
-298 -179 299 0
-298 681 299 0
298 -299 0
298 -681 179 0
299 -437 -439 -179 300 0
-299 -300 0
-299 437 0
-299 179 0
-299 439 0
-300 438 440 301 0
300 -301 0
300 -440 0
300 -438 0
-301 441 442 443 444 0
301 -444 0
301 -443 0
301 -441 0
301 -442 0
-302 517 303 304 307 0
-302 -517 -303 304 307 0
302 -307 0
302 -517 303 0
302 -304 0
302 517 -303 0
303 -683 299 0
303 -179 299 0
-303 -299 0
-303 683 179 0
-304 519 305 0
-304 -519 -305 0
304 -519 305 0
304 519 -305 0
-305 -179 306 0
-305 685 306 0
305 -306 0
305 -685 179 0
306 437 -439 -179 300 0
-306 -437 0
-306 -300 0
-306 179 0
-306 439 0
-307 521 308 309 311 0
-307 -521 -308 309 311 0
307 -311 0
307 -521 308 0
307 -309 0
307 521 -308 0
308 -687 306 0
308 -179 306 0
-308 -306 0
-308 687 179 0
-309 523 310 0
-309 -523 -310 0
309 -523 310 0
309 523 -310 0
-310 689 179 0
-310 437 -179 0
-310 -438 -179 0
310 -689 179 0
310 -437 438 -179 0
-311 525 312 313 315 0
-311 -525 -312 313 315 0
311 -315 0
311 -525 312 0
311 -313 0
311 525 -312 0
312 437 -179 0
312 -691 179 0
312 -438 -179 0
-312 691 179 0
-312 -437 438 -179 0
-313 527 314 0
-313 -527 -314 0
313 -527 314 0
313 527 -314 0
-314 438 -179 0
-314 693 179 0
-314 437 -179 0
314 -693 179 0
314 -437 -438 -179 0
-315 529 316 317 319 0
-315 -529 -316 317 319 0
315 -319 0
315 -529 316 0
315 -317 0
315 529 -316 0
316 438 -179 0
316 -695 179 0
316 437 -179 0
-316 695 179 0
-316 -437 -438 -179 0
-317 532 318 0
-317 -532 -318 0
317 -532 318 0
317 532 -318 0
-318 531 155 0
-318 698 -155 0
318 -698 -155 0
318 -531 155 0
-319 535 320 321 324 0
-319 -535 -320 321 324 0
319 -324 0
319 -535 320 0
319 -321 0
319 535 -320 0
320 -701 -155 0
320 -534 155 0
-320 534 155 0
-320 701 -155 0
-321 537 322 0
-321 -537 -322 0
321 -537 322 0
321 537 -322 0
-322 -155 323 0
-322 703 155 0
322 -155 -323 0
322 -703 155 0
323 427 -318 0
323 -427 -472 473 0
-323 427 318 0
-323 -427 472 0
-323 -427 -473 0
-324 541 325 328 329 0
-324 -541 325 -328 329 0
324 -329 0
324 -541 328 0
324 -325 0
324 541 -328 0
-325 -539 -326 0
-325 539 326 0
325 539 -326 0
325 -539 326 0
326 -155 -327 0
326 -705 155 0
-326 -155 327 0
-326 705 155 0
-327 427 320 0
-327 -427 -472 473 0
327 427 -320 0
327 -427 472 0
327 -427 -473 0
-328 438 -179 0
-328 707 179 0
-328 -437 -179 0
328 -707 179 0
328 437 -438 -179 0
-329 543 330 331 335 0
-329 -543 -330 331 335 0
329 -335 0
329 -543 330 0
329 -331 0
329 543 -330 0
330 438 -179 0
330 -709 179 0
330 -437 -179 0
-330 709 179 0
-330 437 -438 -179 0
-331 545 332 0
-331 -545 -332 0
331 -545 332 0
331 545 -332 0
-332 -179 333 0
-332 711 333 0
332 -333 0
332 -711 179 0
333 -437 -438 -179 334 0
-333 -334 0
-333 437 0
-333 179 0
-333 438 0
-334 439 440 301 0
334 -301 0
334 -440 0
334 -439 0
-335 547 336 337 341 0
-335 -547 -336 337 341 0
335 -341 0
335 -547 336 0
335 -337 0
335 547 -336 0
336 -713 333 0
336 -179 333 0
-336 -333 0
-336 713 179 0
-337 549 338 0
-337 -549 -338 0
337 -549 338 0
337 549 -338 0
-338 -179 339 0
-338 715 339 0
338 -339 0
338 -715 179 0
339 -442 -179 0
339 -179 340 0
339 -443 -179 0
-339 179 0
-339 442 443 -340 0
340 -439 -441 0
-340 439 0
-340 441 0
-341 551 342 343 345 0
-341 -551 -342 343 345 0
341 -345 0
341 -551 342 0
341 -343 0
341 551 -342 0
342 -717 339 0
342 -179 339 0
-342 -339 0
-342 717 179 0
-343 554 344 0
-343 -554 -344 0
343 -554 344 0
343 554 -344 0
-344 553 155 0
-344 720 -155 0
344 -720 -155 0
344 -553 155 0
-345 557 346 347 349 0
-345 -557 -346 347 349 0
345 -349 0
345 -557 346 0
345 -347 0
345 557 -346 0
346 -723 -155 0
346 -556 155 0
-346 556 155 0
-346 723 -155 0
-347 559 348 0
-347 -559 -348 0
347 -559 348 0
347 559 -348 0
-348 725 160 0
-348 422 -160 0
348 -725 160 0
348 -422 -160 0
-349 561 350 351 355 0
-349 -561 -350 351 355 0
349 -355 0
349 -561 350 0
349 -351 0
349 561 -350 0
350 -727 160 0
350 422 -160 0
-350 -422 -160 0
-350 727 160 0
-351 563 352 0
-351 -563 -352 0
351 -563 352 0
351 563 -352 0
-352 -155 353 0
-352 729 155 0
352 -155 -353 0
352 -729 155 0
-353 -427 354 0
-353 427 346 0
353 427 -346 0
353 -427 -354 0
-354 -429 348 0
-354 428 429 0
354 -429 -348 0
354 -428 429 0
-355 567 356 360 364 0
-355 -567 356 -360 364 0
355 -364 0
355 -567 360 0
355 -356 0
355 567 -360 0
-356 -565 -357 0
-356 565 357 0
356 565 -357 0
356 -565 357 0
357 -155 -358 0
357 -731 155 0
-357 -155 358 0
-357 731 155 0
358 -427 359 0
358 427 -344 0
-358 427 344 0
-358 -427 -359 0
-359 -429 -350 0
-359 428 429 0
359 -429 350 0
359 -428 429 0
-360 -361 362 0
-360 733 362 0
360 -362 0
360 -733 361 0
361 -427 -155 0
-361 427 0
-361 155 0
362 -472 -361 0
362 -361 -363 0
362 -478 -361 0
-362 361 0
-362 472 478 363 0
-363 479 480 0
363 -479 0
363 -480 0
-364 -569 -365 366 0
-364 569 365 366 0
364 -366 0
364 -569 365 0
364 569 -365 0
365 -735 362 0
365 -361 362 0
-365 -362 0
-365 735 361 0
-366 571 573 367 405 0
-366 -571 573 -367 405 0
-366 -571 -573 -367 -405 0
-366 571 -573 367 -405 0
366 -571 367 0
366 571 -367 0
366 573 -405 0
366 -573 405 0
367 -737 368 0
367 368 -386 0
367 368 -388 0
-367 -368 0
-367 737 386 388 0
-368 369 380 382 384 0
368 -384 0
368 -382 0
368 -369 0
368 -380 0
-369 370 372 374 378 0
369 -378 0
369 -374 0
369 -370 0
369 -372 0
370 -489 -235 303 371 0
-370 -371 0
-370 489 0
-370 235 0
-370 -303 0
-371 553 556 0
-371 496 497 0
-371 497 556 0
-371 496 553 0
371 -497 -553 0
371 -496 -556 0
372 -489 -235 308 373 0
-372 -373 0
-372 489 0
-372 235 0
-372 -308 0
-373 553 556 0
-373 494 495 0
-373 495 556 0
-373 494 553 0
373 -495 -553 0
373 -494 -556 0
374 -235 296 375 376 0
-374 -376 0
-374 235 0
-374 -375 0
-374 -296 0
-375 553 556 0
-375 506 507 0
-375 507 556 0
-375 506 553 0
375 -507 -553 0
375 -506 -556 0
-376 -489 338 0
-376 534 338 377 0
376 -338 0
376 489 -534 0
376 489 -377 0
-377 486 487 492 493 0
377 -493 0
377 -492 0
377 -486 0
377 -487 0
378 -235 312 376 379 0
-378 -379 0
-378 235 0
-378 -376 0
-378 -312 0
-379 553 556 0
-379 504 505 0
-379 505 556 0
-379 504 553 0
379 -505 -553 0
379 -504 -556 0
380 -235 316 376 381 0
-380 -381 0
-380 235 0
-380 -376 0
-380 -316 0
-381 553 556 0
-381 500 501 0
-381 501 556 0
-381 500 553 0
381 -501 -553 0
381 -500 -556 0
382 -235 330 376 383 0
-382 -383 0
-382 235 0
-382 -376 0
-382 -330 0
-383 553 556 0
-383 502 503 0
-383 503 556 0
-383 502 553 0
383 -503 -553 0
383 -502 -556 0
384 -489 -235 336 385 0
-384 -385 0
-384 489 0
-384 235 0
-384 -336 0
-385 553 556 0
-385 498 499 0
-385 499 556 0
-385 498 553 0
385 -499 -553 0
385 -498 -556 0
-386 490 235 0
-386 489 490 387 0
386 -490 0
386 -489 -235 0
386 -235 -387 0
-387 487 488 360 0
-387 -486 487 488 0
387 -488 0
387 -487 0
387 486 -360 0
-388 389 399 401 403 0
388 -403 0
388 -401 0
388 -389 0
388 -399 0
-389 390 392 394 397 0
389 -397 0
389 -394 0
389 -390 0
389 -392 0
390 -489 -235 -298 391 0
-390 -391 0
-390 489 0
-390 235 0
-390 298 0
-391 496 497 0
-391 -553 -556 0
-391 496 -556 0
-391 497 -553 0
391 -496 553 0
391 -497 556 0
392 -489 -235 -305 393 0
-392 -393 0
-392 489 0
-392 235 0
-392 305 0
-393 494 495 0
-393 -553 -556 0
-393 494 -556 0
-393 495 -553 0
393 -494 553 0
393 -495 556 0
394 -235 -294 395 -396 0
-394 396 0
-394 235 0
-394 -395 0
-394 294 0
-395 506 507 0
-395 -553 -556 0
-395 506 -556 0
-395 507 -553 0
395 -506 553 0
395 -507 556 0
396 -489 -342 0
396 -531 -342 377 0
-396 342 0
-396 489 531 0
-396 489 -377 0
397 -235 -310 -396 398 0
-397 -398 0
-397 235 0
-397 396 0
-397 310 0
-398 504 505 0
-398 -553 -556 0
-398 504 -556 0
-398 505 -553 0
398 -504 553 0
398 -505 556 0
399 -235 -314 -396 400 0
-399 -400 0
-399 235 0
-399 396 0
-399 314 0
-400 500 501 0
-400 -553 -556 0
-400 500 -556 0
-400 501 -553 0
400 -500 553 0
400 -501 556 0
401 -235 -328 -396 402 0
-401 -402 0
-401 235 0
-401 396 0
-401 328 0
-402 502 503 0
-402 -553 -556 0
-402 502 -556 0
-402 503 -553 0
402 -502 553 0
402 -503 556 0
403 -489 -235 -332 404 0
-403 -404 0
-403 489 0
-403 235 0
-403 332 0
-404 498 499 0
-404 -553 -556 0
-404 498 -556 0
-404 499 -553 0
404 -498 553 0
404 -499 556 0
-405 -368 388 0
-405 388 -406 0
-405 739 388 0
405 -388 0
405 -739 368 406 0
-406 490 235 0
-406 489 490 -407 0
406 -490 0
406 -489 -235 0
406 -235 407 0
407 487 488 -365 0
407 -486 487 488 0
-407 -488 0
-407 -487 0
-407 486 365 0
408 578 -742 0
408 -578 742 0
-408 -578 -742 0
-408 578 742 0
-409 -575 -410 0
-409 575 410 0
409 575 -410 0
409 -575 410 0
410 -657 675 -737 739 0
410 657 -675 737 -739 0
-410 -657 -675 0
-410 675 -739 0
-410 737 739 0
-410 657 -737 0
-746 0
2 0
745 0
411 0
412 0
413 0
414 0
415 0
416 0
417 0
418 0
419 0
420 0
421 0
422 0
423 0
424 0
425 0
426 0
427 0
428 0
429 0
430 0
431 0
432 0
433 0
434 0
435 0
436 0
437 0
438 0
439 0
440 0
441 0
442 0
443 0
444 0
445 0
446 0
447 0
448 0
449 0
450 0
451 0
452 0
453 0
454 0
455 0
456 0
457 0
458 0
459 0
460 0
461 0
462 0
463 0
464 0
465 0
466 0
467 0
468 0
469 0
470 0
471 0
472 0
473 0
474 0
475 0
476 0
477 0
478 0
479 0
480 0
481 0
482 0
483 0
484 0
485 0
486 0
487 0
488 0
489 0
490 0
491 0
492 0
493 0
494 0
495 0
496 0
497 0
498 0
499 0
500 0
501 0
502 0
503 0
504 0
505 0
506 0
507 0
508 0
509 0
510 0
511 0
512 0
513 0
514 0
515 0
516 0
517 0
518 0
519 0
520 0
521 0
522 0
523 0
524 0
525 0
526 0
527 0
528 0
529 0
530 0
531 0
532 0
533 0
534 0
535 0
536 0
537 0
538 0
539 0
540 0
541 0
542 0
543 0
544 0
545 0
546 0
547 0
548 0
549 0
550 0
551 0
552 0
553 0
554 0
555 0
556 0
557 0
558 0
559 0
560 0
561 0
562 0
563 0
564 0
565 0
566 0
567 0
568 0
569 0
570 0
571 0
572 0
573 0
574 0
3 0
4 0
575 0
5 0
-746 0

